45
28
2
16 2
15 1
28 0
22 0
12 0
21 2
2 1
27 2
5 2
15 2
10 1
18 1
14 1
8 2
8 2
9 1
24 2
18 2
11 2
3 2
20 1
8 1
8 1
7 1
3 2
22 1
2 0
2 1
1 0
19 2
26 0
18 2
7 2
21 0
20 0
20 2
3 0
19 0
4 0
24 0
26 2
2 2
28 1
3 2
2 0
